55 80
6 8 2
4 9 3
6 4 3
3 1 3
3 3 1
3 5 3
6 6 2
8 8 2
7 6 2
5 10 1
8 3 1
9 6 1
4 8 4
10 1 1
9 2 1
10 4 2
6 7 1
5 6 1
6 9 1
7 2 2
1 4 1
4 7 3
3 2 1
8 5 2
6 2 1
1 1 1
7 4 1
4 1 1
2 4 2
7 1 1
9 5 1
2 10 2
7 3 1
1 7 1
2 8 1
9 9 1
8 7 1
2 2 1
10 6 1
1 10 1
10 5 1
3 4 2
9 7 2
1 8 1
4 3 2
9 8 1
3 8 1
1 3 1
8 4 1
7 10 1
8 1 1
7 9 1
5 5 1
10 2 1
8 10 1
30 30 
30 30 
30 30 
30 30 
30 30 
30 30 
30 30 
30 30 
30 30 
30 30 
30 30 
30 30 
30 30 
30 30 
30 30 
30 30 
30 30 
30 30 
30 30 
30 30 
30 30 
30 30 
30 30 
30 30 
30 30 
30 30 
30 30 
30 30 
30 30 
30 30 
30 30 
30 30 
30 30 
30 30 
30 30 
30 30 
30 30 
30 30 
30 30 
30 30 
30 30 
30 30 
30 30 
30 30 
30 30 
30 30 
30 30 
30 30 
30 30 
30 30 
30 30 
30 30 
30 30 
30 30 
30 30 
30 30 
30 30 
30 30 
30 30 
30 30 
30 30 
30 30 
30 30 
30 30 
30 30 
30 30 
30 30 
30 30 
30 30 
30 30 
30 30 
30 30 
30 30 
30 30 
30 30 
30 30 
30 30 
30 30 
30 30 
30 30 
